20 380
0 1 66.8
0 2 54.3
0 3 23.1
0 4 42.5
0 5 37.1
0 6 55.6
0 7 39.4
0 8 19.1
0 9 20.7
0 10 85.5
0 11 24.6
0 12 86.7
0 13 82.8
0 14 80.2
0 15 33.7
0 16 86.5
0 17 58.7
0 18 41.5
0 19 62.6
1 2 31.4
1 3 78.5
1 4 72.3
1 5 91.4
1 6 33.7
1 7 55.2
1 8 75.0
1 9 63.7
1 10 24.2
1 11 52.5
1 12 20.2
1 13 25.8
1 14 13.8
1 15 75.2
1 16 24.0
1 17 57.2
1 18 50.1
1 19 71.3
2 3 57.0
2 4 78.2
2 5 88.0
2 6 53.2
2 7 63.3
2 8 69.3
2 9 61.5
2 10 36.5
2 11 52.7
2 12 48.3
2 13 57.1
2 14 38.8
2 15 49.3
2 16 38.3
2 17 73.8
2 18 21.5
2 19 86.0
3 4 65.2
3 5 54.2
3 6 75.3
3 7 62.1
3 8 39.6
3 9 43.7
3 10 92.7
3 11 46.8
3 12 98.7
3 13 98.7
3 14 90.7
3 15 14.9
3 16 94.1
3 17 81.3
3 18 37.5
3 19 85.6
4 5 28.5
4 6 42.6
4 7 17.1
4 8 27.3
4 9 22.1
4 10 96.2
4 11 26.0
4 12 87.5
4 13 74.5
4 14 85.2
4 15 76.0
4 16 96.2
4 17 27.5
4 18 75.5
4 19 23.0
5 6 67.1
5 7 41.1
5 8 18.8
5 9 27.9
5 10 113.8
5 11 38.9
5 12 109.2
5 13 99.2
5 14 105.1
5 15 68.2
5 16 114.3
5 17 55.9
5 18 78.2
5 19 50.5
6 7 26.3
6 8 55.0
6 9 42.7
6 10 57.6
6 11 32.5
6 12 45.5
6 13 32.2
6 14 44.8
6 15 78.5
6 16 57.1
6 17 23.5
6 18 62.6
6 19 37.7
7 8 31.6
7 9 20.5
7 10 79.2
7 11 15.8
7 12 70.5
7 13 58.4
7 14 68.1
7 15 70.0
7 16 79.1
7 17 19.4
7 18 63.8
7 19 25.1
8 9 12.3
8 10 96.5
8 11 23.3
8 12 93.7
8 13 85.9
8 14 88.7
8 15 52.2
8 16 97.1
8 17 50.1
8 18 59.5
8 19 49.9
9 10 86.0
9 11 11.3
9 12 82.0
9 13 73.6
9 14 77.4
9 15 53.9
9 16 86.4
9 17 39.7
9 18 55.1
9 19 42.0
10 11 75.1
10 12 21.3
10 13 39.8
10 14 14.4
10 15 85.8
10 16 2.2
10 17 81.1
10 18 58.0
10 19 95.4
11 12 70.7
11 13 62.7
11 14 66.2
11 15 54.3
11 16 75.4
11 17 34.5
11 18 49.7
11 19 40.7
12 13 19.7
12 14 9.7
12 15 94.8
12 16 19.4
12 17 67.7
12 18 68.8
12 19 82.0
13 14 25.7
13 15 97.9
13 16 38.2
13 17 51.5
13 18 74.8
13 19 65.4
14 15 86.1
14 16 13.1
14 17 68.0
14 18 59.6
14 19 82.4
15 16 87.5
15 17 88.4
15 18 28.0
15 19 94.6
16 17 80.5
16 18 59.8
16 19 94.8
17 18 78.8
17 19 14.4
18 19 88.7
